Solver command line: ['C:\\Program Files\\IBM\\ILOG\\CPLEX_Studio2211\\cplex\\bin\\x64_win64\\cplex.exe']


Welcome to IBM(R) ILOG(R) CPLEX(R) Interactive Optimizer 22.1.1.0
  with Simplex, Mixed Integer & Barrier Optimizers
5725-A06 5725-A29 5724-Y48 5724-Y49 5724-Y54 5724-Y55 5655-Y21
Copyright IBM Corp. 1988, 2022.  All Rights Reserved.

Type 'help' for a list of available commands.
Type 'help' followed by a command name for more
information on commands.

CPLEX> Logfile 'cplex.log' closed.
Logfile 'C:\Users\wangy\Documents\GitHub\re_optimization\result_site_specific\tmpvwv1mzd2.cplex.log' open.
CPLEX> Problem 'C:\Users\wangy\Documents\GitHub\re_optimization\result_site_specific\tmp2r5ukwd4.pyomo.lp' read.
Read time = 0.25 sec. (7.29 ticks)
CPLEX> Problem name         : C:\Users\wangy\Documents\GitHub\re_optimization\result_site_specific\tmp2r5ukwd4.pyomo.lp
Objective sense      : Minimize
Variables            :   52617  [Nneg: 27764,  Free: 8786,  Binary: 7,
                                 Other: 16060]
Objective nonzeros   :      14
Linear constraints   :   73052  [Less: 39437,  Greater: 3,  Equal: 33612]
  Nonzeros           :  181243
  RHS nonzeros       :    4106

Variables            : Min LB: 0.000000         Max UB: 1.000000       
Objective nonzeros   : Min   : 1.000000         Max   : 1.000000       
Linear constraints   :
  Nonzeros           : Min   : 0.002124519      Max   : 100000.0       
  RHS nonzeros       : Min   : 0.01700000       Max   : 1000.000       
CPLEX> Version identifier: 22.1.1.0 | 2022-11-27 | 9160aff4d
Tried aggregator 3 times.
MIP Presolve eliminated 47530 rows and 28551 columns.
Aggregator did 7308 substitutions.
Reduced MIP has 18214 rows, 16758 columns, and 52798 nonzeros.
Reduced MIP has 5 binaries, 0 generals, 0 SOSs, and 0 indicators.
Presolve time = 0.14 sec. (152.58 ticks)
Found incumbent of value 161544.199513 after 0.17 sec. (178.11 ticks)
Probing time = 0.00 sec. (1.03 ticks)
Tried aggregator 1 time.
Detecting symmetries...
Reduced MIP has 18214 rows, 16758 columns, and 52798 nonzeros.
Reduced MIP has 5 binaries, 0 generals, 0 SOSs, and 0 indicators.
Presolve time = 0.03 sec. (31.40 ticks)
Probing time = 0.02 sec. (0.93 ticks)
MIP emphasis: balance optimality and feasibility.
MIP search method: dynamic search.
Parallel mode: deterministic, using up to 16 threads.
Root relaxation solution time = 0.64 sec. (474.81 ticks)

        Nodes                                         Cuts/
   Node  Left     Objective  IInf  Best Integer    Best Bound    ItCnt     Gap

*     0+    0                       161544.1995    -7260.7406           104.49%
*     0+    0                         3673.9442    -7260.7406           297.63%
      0     0     3670.4141     1     3673.9442     3670.4141       47    0.10%
*     0+    0                         3673.8121     3670.4141             0.09%
      0     0        cutoff           3673.8121                     75    0.00%
Elapsed time = 1.03 sec. (793.34 ticks, tree = 0.01 MB, solutions = 3)

Root node processing (before b&c):
  Real time             =    1.05 sec. (795.85 ticks)
Parallel b&c, 16 threads:
  Real time             =    0.00 sec. (0.00 ticks)
  Sync time (average)   =    0.00 sec.
  Wait time (average)   =    0.00 sec.
                          ------------
Total (root+branch&cut) =    1.05 sec. (795.85 ticks)

Solution pool: 3 solutions saved.

MIP - Integer optimal solution:  Objective =  3.6738120921e+03
Solution time =    1.05 sec.  Iterations = 75  Nodes = 0
Deterministic time = 796.00 ticks  (760.26 ticks/sec)

CPLEX> Incumbent solution written to file 'C:\Users\wangy\Documents\GitHub\re_optimization\result_site_specific\tmppil0a95i.cplex.sol'.
CPLEX> 
